experiment/data/lkh-res/Vrp-Set-A-n46/Vrp-Set-A-n46-lkh/0.lkh1.vrp
NAME : 0
COMMENT : CVRP Instance
TYPE : CVRP
DIMENSION : 46
EDGE_WEIGHT_TYPE : EUC_2D
CAPACITY : 100
NODE_COORD_SECTION
1	7500	5500
2	700	7500
3	7700	100
4	5100	2500
5	8100	2500
6	5900	3700
7	9300	4500
8	4300	2100
9	3500	5300
10	7700	6300
11	3700	1300
12	3700	5100
13	2700	3100
14	9500	3100
15	8700	4300
16	2300	6500
17	900	5100
18	7300	8100
19	300	100
20	4100	6100
21	2900	8100
22	5100	9500
23	4900	2500
24	8100	5300
25	700	5100
26	2100	500
27	9100	3500
28	1700	8100
29	6100	6900
30	2700	9700
31	8300	2300
32	2100	9300
33	5900	3100
34	2700	5300
35	900	9100
36	1100	2700
37	5900	4100
38	6700	100
39	7700	3900
40	4700	2900
41	300	8900
42	3300	8700
43	1700	4500
44	9100	4100
45	2300	300
46	9700	6100
DEMAND_SECTION
1	0
2	12
3	26
4	1
5	20
6	2
7	13
8	20
9	7
10	10
11	15
12	7
13	24
14	10
15	12
16	23
17	13
18	19
19	9
20	12
21	6
22	9
23	22
24	18
25	19
26	20
27	24
28	10
29	4
30	20
31	15
32	13
33	12
34	3
35	7
36	18
37	3
38	23
39	1
40	17
41	13
42	6
43	22
44	20
45	21
46	2
DEPOT_SECTION
1
-1
EOF
