experiment/data/lkh-res/Vrp-Set-A-n46/Vrp-Set-A-n46-lkh/0.lkh1.tour
NAME : 0.91769.tour
COMMENT : Length = 91769
COMMENT : Found by LKH-3 [Keld Helsgaun] Tue Apr  9 00:43:48 2024
TYPE : TOUR
DIMENSION : 52
TOUR_SECTION
1
6
33
4
23
11
8
40
37
51
14
31
3
38
5
39
47
10
18
46
7
44
27
15
49
12
13
36
19
26
45
48
9
34
43
17
25
16
20
50
29
42
21
28
2
41
35
32
30
22
52
24
-1
EOF
